Version identifier: 22.1.0.0 | 2022-03-09 | 1a383f8ce
CPXPARAM_Threads                                 1
CPXPARAM_MIP_Strategy_VariableSelect             3
CPXPARAM_TimeLimit                               599.99783040800003
Found incumbent of value 0.000000 after 0.00 sec. (0.27 ticks)

Root node processing (before b&c):
  Real time             =    0.00 sec. (0.30 ticks)
Sequential b&c:
  Real time             =    0.00 sec. (0.00 ticks)
                          ------------
Total (root+branch&cut) =    0.00 sec. (0.30 ticks)
Version identifier: 22.1.0.0 | 2022-03-09 | 1a383f8ce
CPXPARAM_Threads                                 1
CPXPARAM_MIP_Strategy_VariableSelect             3
CPXPARAM_TimeLimit                               599.98129036099999
Found incumbent of value 0.000000 after 0.00 sec. (0.40 ticks)

Root node processing (before b&c):
  Real time             =    0.00 sec. (0.45 ticks)
Sequential b&c:
  Real time             =    0.00 sec. (0.00 ticks)
                          ------------
Total (root+branch&cut) =    0.00 sec. (0.45 ticks)
Version identifier: 22.1.0.0 | 2022-03-09 | 1a383f8ce
CPXPARAM_Threads                                 1
CPXPARAM_MIP_Strategy_VariableSelect             3
CPXPARAM_TimeLimit                               599.96078325999997
Found incumbent of value 0.000000 after 0.00 sec. (0.46 ticks)

Root node processing (before b&c):
  Real time             =    0.00 sec. (0.52 ticks)
Sequential b&c:
  Real time             =    0.00 sec. (0.00 ticks)
                          ------------
Total (root+branch&cut) =    0.00 sec. (0.52 ticks)
Version identifier: 22.1.0.0 | 2022-03-09 | 1a383f8ce
CPXPARAM_Threads                                 1
CPXPARAM_MIP_Strategy_VariableSelect             3
CPXPARAM_TimeLimit                               599.93749702499997
Found incumbent of value 0.000000 after 0.00 sec. (0.49 ticks)

Root node processing (before b&c):
  Real time             =    0.00 sec. (0.56 ticks)
Sequential b&c:
  Real time             =    0.00 sec. (0.00 ticks)
                          ------------
Total (root+branch&cut) =    0.00 sec. (0.56 ticks)
Version identifier: 22.1.0.0 | 2022-03-09 | 1a383f8ce
CPXPARAM_Threads                                 1
CPXPARAM_MIP_Strategy_VariableSelect             3
CPXPARAM_TimeLimit                               599.91273680999996
Found incumbent of value 0.000000 after 0.00 sec. (0.51 ticks)

Root node processing (before b&c):
  Real time             =    0.00 sec. (0.57 ticks)
Sequential b&c:
  Real time             =    0.00 sec. (0.00 ticks)
                          ------------
Total (root+branch&cut) =    0.00 sec. (0.57 ticks)
Version identifier: 22.1.0.0 | 2022-03-09 | 1a383f8ce
CPXPARAM_Threads                                 1
CPXPARAM_MIP_Strategy_VariableSelect             3
CPXPARAM_TimeLimit                               599.89045767300001
Found incumbent of value 0.000000 after 0.00 sec. (0.52 ticks)

Root node processing (before b&c):
  Real time             =    0.00 sec. (0.58 ticks)
Sequential b&c:
  Real time             =    0.00 sec. (0.00 ticks)
                          ------------
Total (root+branch&cut) =    0.00 sec. (0.58 ticks)
Version identifier: 22.1.0.0 | 2022-03-09 | 1a383f8ce
CPXPARAM_Threads                                 1
CPXPARAM_MIP_Strategy_VariableSelect             3
CPXPARAM_TimeLimit                               599.86739929600003
Tried aggregator 1 time.
MIP Presolve eliminated 328 rows and 1252 columns.
Reduced MIP has 1875 rows, 2504 columns, and 20542 nonzeros.
Reduced MIP has 2504 binaries, 0 generals, 0 SOSs, and 0 indicators.
Presolve time = 0.02 sec. (11.66 ticks)
Found incumbent of value 0.000000 after 0.05 sec. (32.91 ticks)

Root node processing (before b&c):
  Real time             =    0.05 sec. (33.05 ticks)
Sequential b&c:
  Real time             =    0.00 sec. (0.00 ticks)
                          ------------
Total (root+branch&cut) =    0.05 sec. (33.05 ticks)
Version identifier: 22.1.0.0 | 2022-03-09 | 1a383f8ce
CPXPARAM_Threads                                 1
CPXPARAM_MIP_Strategy_VariableSelect             3
CPXPARAM_TimeLimit                               599.79454790499994
Tried aggregator 1 time.
MIP Presolve eliminated 329 rows and 1256 columns.
Reduced MIP has 1881 rows, 2512 columns, and 20608 nonzeros.
Reduced MIP has 2512 binaries, 0 generals, 0 SOSs, and 0 indicators.
Presolve time = 0.02 sec. (11.71 ticks)
Found incumbent of value 0.000000 after 0.05 sec. (33.06 ticks)

Root node processing (before b&c):
  Real time             =    0.05 sec. (33.20 ticks)
Sequential b&c:
  Real time             =    0.00 sec. (0.00 ticks)
                          ------------
Total (root+branch&cut) =    0.05 sec. (33.20 ticks)
Version identifier: 22.1.0.0 | 2022-03-09 | 1a383f8ce
CPXPARAM_Threads                                 1
CPXPARAM_MIP_Strategy_VariableSelect             3
CPXPARAM_TimeLimit                               599.72338630199999
Tried aggregator 1 time.
MIP Presolve eliminated 330 rows and 1260 columns.
Reduced MIP has 1887 rows, 2520 columns, and 20674 nonzeros.
Reduced MIP has 2520 binaries, 0 generals, 0 SOSs, and 0 indicators.
Presolve time = 0.02 sec. (11.74 ticks)
Found incumbent of value 0.000000 after 0.05 sec. (34.75 ticks)

Root node processing (before b&c):
  Real time             =    0.05 sec. (34.89 ticks)
Sequential b&c:
  Real time             =    0.00 sec. (0.00 ticks)
                          ------------
Total (root+branch&cut) =    0.05 sec. (34.89 ticks)
Primal:	315
Dual:	315
Status:	Optimal
Time:	0.345602
Sequence:
	1
	9
	4
	6
	9
	0
	4
	10
	4
	4
	1
	0
	9
	1
	4
	4
	9
	10
	0
	9
	6
	9
	0
	9
	6
	9
	9
	1
	4
	4
	1
	0
	1
	4
	9
	0
	5
	4
	1
	9
	9
	9
	4
	4
	9
	9
	1
	9
	9
	1
	9
	4
	9
	9
	8
	4
	9
	4
	1
	9
	6
	4
	9
	4
	9
	1
	0
	9
	9
	9
	4
	4
	9
	9
	4
	4
	9
	5
	4
	9
	0
	6
	9
	0
	4
	9
	1
	9
	4
	1
	9
	0
	9
	6
	4
	9
	1
	9
	1
	9
	4
	9
	9
	1
	9
	1
	9
	9
	9
	9
	1
	4
	0
	4
	4
	9
	9
	9
	5
	4
	9
	9
	6
	9
	4
	1
	9
	9
	9
	1
	4
	1
	4
	9
	0
	4
	4
	9
	9
	0
	1
	9
	0
	9
	4
	0
	4
	4
	1
	9
	9
	9
	6
	4
	9
	4
	0
	9
	4
	10
	9
	9
	9
	9
	0
	4
	4
	9
	4
	4
	9
	4
	9
	0
	9
	9
	9
	4
	6
	9
	1
	4
	6
	9
	1
	4
	1
	0
	9
	6
	4
	9
	9
	6
	4
	1
	9
	9
	1
	4
	4
	1
	9
	0
	9
	4
	5
	9
	9
	1
	4
	0
	9
	1
	9
	6
	4
	1
	0
	9
	9
	1
	4
	4
	0
	4
	9
	4
	9
	4
	1
	4
	9
	9
	6
	4
	9
	4
	4
	9
	4
	0
	9
	9
	9
	6
	4
	9
	4
	9
	1
	4
	4
	9
	4
	1
	4
	9
	5
	4
	0
	4
	4
	0
	4
	4
	0
	4
	9
	0
	1
	9
	4
	1
	4
	10
	4
	9
	4
	9
	0
	4
	4
	1
	4
	1
	8
	4
	9
	9
	4
	6
	9
	4
	4
	1
	4
	4
	1
	9
	1
	0
	9
	4
	1
	4
	1
	9
	1
	9
	4
	4
	1
	9
	0
